100
128
63
48
39
55
48
20
26
43
14
5
64
9
47
62
29
45
11
21
25
17
2
60
32
11
18
22
3
35
55
54
2
64
19
48
19
11
17
56
23
54
42
32
28
18
14
13
2
14
1
20
63
46
3
1
36
24
61
20
29
19
42
2
11
50
45
57
63
50
24
5
13
39
58
15
15
44
63
20
16
42
18
54
34
4
40
29
43
25
21
1
1
5
41
34
23
5
2
4
55
39